NAME 
OBJSENSE MAX
ROWS
 N  OBJ
 L  packing[0]
 L  packing[1]
 L  packing[2]
 L  packing[3]
 L  packing[4]
 L  packing[5]
 L  packing[6]
 L  packing[7]
 L  packing[8]
 L  packing[9]
 L  packing[10]
 L  packing[11]
 L  packing[12]
 L  packing[13]
 L  packing[14]
 L  packing[15]
 L  packing[16]
 L  packing[17]
 L  packing[18]
 L  packing[19]
 L  packing[20]
 L  packing[21]
 L  packing[22]
 L  packing[23]
 L  packing[24]
 L  packing[25]
 L  packing[26]
 L  packing[27]
 L  packing[28]
 L  packing[29]
 L  packing[30]
 L  packing[31]
 L  packing[32]
 L  packing[33]
 L  packing[34]
 L  packing[35]
 L  packing[36]
 L  packing[37]
 L  packing[38]
 L  packing[39]
 L  packing[40]
 L  packing[41]
 L  packing[42]
 L  packing[43]
 L  packing[44]
 L  packing[45]
 L  packing[46]
 L  packing[47]
 L  packing[48]
 L  packing[49]
 L  R50     
COLUMNS
    MARKER    'MARKER'                 'INTORG'
    x[1]      OBJ       88
    x[1]      packing[0]  33
    x[1]      packing[1]  8
    x[1]      packing[2]  56
    x[1]      packing[5]  115
    x[1]      packing[6]  76
    x[1]      packing[8]  12
    x[1]      packing[9]  104
    x[1]      packing[10]  2
    x[1]      packing[12]  164
    x[1]      packing[13]  23
    x[1]      packing[14]  107
    x[1]      packing[15]  159
    x[1]      packing[17]  110
    x[1]      packing[19]  15
    x[1]      packing[21]  53
    x[1]      packing[22]  86
    x[1]      packing[24]  15
    x[1]      packing[25]  79
    x[1]      packing[26]  8
    x[1]      packing[27]  76
    x[1]      packing[28]  87
    x[1]      packing[32]  186
    x[1]      packing[33]  134
    x[1]      packing[34]  182
    x[1]      packing[37]  4
    x[1]      packing[41]  8
    x[1]      packing[43]  121
    x[1]      packing[45]  143
    x[1]      packing[46]  42
    x[1]      packing[47]  199
    x[1]      packing[48]  71
    x[1]      R50       1
    x[2]      OBJ       48
    x[2]      packing[1]  62
    x[2]      packing[2]  96
    x[2]      packing[3]  128
    x[2]      packing[5]  57
    x[2]      packing[6]  90
    x[2]      packing[7]  191
    x[2]      packing[9]  73
    x[2]      packing[12]  97
    x[2]      packing[13]  11
    x[2]      packing[14]  130
    x[2]      packing[16]  93
    x[2]      packing[17]  85
    x[2]      packing[18]  169
    x[2]      packing[19]  168
    x[2]      packing[20]  101
    x[2]      packing[21]  123
    x[2]      packing[22]  104
    x[2]      packing[23]  37
    x[2]      packing[24]  61
    x[2]      packing[26]  45
    x[2]      packing[27]  63
    x[2]      packing[29]  182
    x[2]      packing[30]  134
    x[2]      packing[33]  194
    x[2]      packing[34]  46
    x[2]      packing[35]  153
    x[2]      packing[36]  193
    x[2]      packing[40]  59
    x[2]      packing[42]  43
    x[2]      packing[44]  166
    x[2]      packing[46]  156
    x[2]      packing[47]  155
    x[2]      packing[48]  48
    x[2]      packing[49]  145
    x[3]      OBJ       26
    x[3]      packing[2]  141
    x[3]      packing[5]  63
    x[3]      packing[6]  167
    x[3]      packing[7]  70
    x[3]      packing[8]  27
    x[3]      packing[10]  66
    x[3]      packing[11]  29
    x[3]      packing[12]  199
    x[3]      packing[13]  92
    x[3]      packing[14]  87
    x[3]      packing[15]  190
    x[3]      packing[16]  142
    x[3]      packing[19]  70
    x[3]      packing[20]  108
    x[3]      packing[21]  47
    x[3]      packing[22]  76
    x[3]      packing[24]  43
    x[3]      packing[25]  122
    x[3]      packing[26]  175
    x[3]      packing[27]  38
    x[3]      packing[28]  2
    x[3]      packing[29]  132
    x[3]      packing[30]  4
    x[3]      packing[31]  99
    x[3]      packing[32]  165
    x[3]      packing[33]  97
    x[3]      packing[34]  11
    x[3]      packing[36]  150
    x[3]      packing[37]  50
    x[3]      packing[39]  190
    x[3]      packing[40]  54
    x[3]      packing[41]  71
    x[3]      packing[42]  80
    x[3]      packing[44]  173
    x[3]      packing[45]  161
    x[3]      packing[46]  186
    x[3]      packing[47]  99
    x[3]      packing[48]  142
    x[3]      packing[49]  170
    x[4]      OBJ       181
    x[4]      packing[0]  89
    x[4]      packing[2]  110
    x[4]      packing[3]  2
    x[4]      packing[5]  14
    x[4]      packing[6]  121
    x[4]      packing[7]  180
    x[4]      packing[9]  155
    x[4]      packing[10]  174
    x[4]      packing[12]  183
    x[4]      packing[13]  22
    x[4]      packing[14]  198
    x[4]      packing[15]  169
    x[4]      packing[16]  43
    x[4]      packing[17]  54
    x[4]      packing[18]  42
    x[4]      packing[19]  88
    x[4]      packing[20]  140
    x[4]      packing[21]  2
    x[4]      packing[23]  3
    x[4]      packing[26]  98
    x[4]      packing[27]  163
    x[4]      packing[28]  84
    x[4]      packing[29]  13
    x[4]      packing[32]  14
    x[4]      packing[34]  133
    x[4]      packing[35]  183
    x[4]      packing[37]  53
    x[4]      packing[40]  62
    x[4]      packing[41]  68
    x[4]      packing[42]  105
    x[4]      packing[43]  184
    x[4]      packing[44]  96
    x[4]      packing[45]  41
    x[4]      packing[47]  99
    x[4]      packing[49]  155
    x[4]      R50       1
    x[5]      OBJ       103
    x[5]      packing[0]  190
    x[5]      packing[2]  55
    x[5]      packing[3]  185
    x[5]      packing[4]  21
    x[5]      packing[6]  92
    x[5]      packing[7]  143
    x[5]      packing[8]  58
    x[5]      packing[9]  186
    x[5]      packing[10]  11
    x[5]      packing[11]  136
    x[5]      packing[13]  115
    x[5]      packing[14]  160
    x[5]      packing[15]  18
    x[5]      packing[16]  41
    x[5]      packing[18]  63
    x[5]      packing[20]  148
    x[5]      packing[21]  183
    x[5]      packing[22]  138
    x[5]      packing[23]  96
    x[5]      packing[24]  51
    x[5]      packing[25]  35
    x[5]      packing[27]  199
    x[5]      packing[28]  16
    x[5]      packing[29]  22
    x[5]      packing[30]  195
    x[5]      packing[31]  52
    x[5]      packing[32]  182
    x[5]      packing[33]  54
    x[5]      packing[34]  20
    x[5]      packing[35]  96
    x[5]      packing[36]  155
    x[5]      packing[37]  75
    x[5]      packing[39]  31
    x[5]      packing[40]  56
    x[5]      packing[41]  47
    x[5]      packing[42]  15
    x[5]      packing[44]  139
    x[5]      packing[45]  82
    x[5]      packing[46]  172
    x[5]      packing[47]  70
    x[5]      packing[48]  108
    x[5]      R50       1
    x[6]      OBJ       38
    x[6]      packing[0]  135
    x[6]      packing[1]  171
    x[6]      packing[3]  82
    x[6]      packing[5]  74
    x[6]      packing[6]  149
    x[6]      packing[8]  91
    x[6]      packing[9]  140
    x[6]      packing[10]  115
    x[6]      packing[11]  84
    x[6]      packing[12]  154
    x[6]      packing[14]  161
    x[6]      packing[15]  100
    x[6]      packing[17]  163
    x[6]      packing[18]  185
    x[6]      packing[20]  2
    x[6]      packing[21]  148
    x[6]      packing[22]  75
    x[6]      packing[23]  159
    x[6]      packing[24]  171
    x[6]      packing[26]  18
    x[6]      packing[28]  96
    x[6]      packing[30]  91
    x[6]      packing[31]  88
    x[6]      packing[32]  70
    x[6]      packing[36]  51
    x[6]      packing[38]  182
    x[6]      packing[39]  141
    x[6]      packing[40]  72
    x[6]      packing[41]  80
    x[6]      packing[44]  40
    x[6]      packing[45]  128
    x[6]      packing[46]  69
    x[6]      packing[47]  184
    x[6]      packing[48]  154
    x[6]      packing[49]  198
    x[7]      OBJ       188
    x[7]      packing[0]  58
    x[7]      packing[1]  185
    x[7]      packing[2]  19
    x[7]      packing[3]  70
    x[7]      packing[4]  74
    x[7]      packing[5]  9
    x[7]      packing[7]  183
    x[7]      packing[10]  63
    x[7]      packing[12]  141
    x[7]      packing[17]  21
    x[7]      packing[19]  107
    x[7]      packing[20]  34
    x[7]      packing[21]  100
    x[7]      packing[22]  26
    x[7]      packing[23]  73
    x[7]      packing[24]  83
    x[7]      packing[25]  41
    x[7]      packing[26]  127
    x[7]      packing[27]  63
    x[7]      packing[28]  120
    x[7]      packing[29]  45
    x[7]      packing[30]  6
    x[7]      packing[31]  89
    x[7]      packing[32]  110
    x[7]      packing[33]  89
    x[7]      packing[34]  6
    x[7]      packing[37]  136
    x[7]      packing[38]  36
    x[7]      packing[39]  191
    x[7]      packing[40]  136
    x[7]      packing[42]  8
    x[7]      packing[43]  41
    x[7]      packing[44]  199
    x[7]      packing[45]  129
    x[7]      packing[47]  184
    x[7]      packing[48]  2
    x[7]      packing[49]  175
    x[7]      R50       1
    x[8]      OBJ       62
    x[8]      packing[0]  94
    x[8]      packing[2]  113
    x[8]      packing[4]  140
    x[8]      packing[5]  182
    x[8]      packing[6]  157
    x[8]      packing[7]  133
    x[8]      packing[8]  194
    x[8]      packing[9]  12
    x[8]      packing[10]  119
    x[8]      packing[11]  1
    x[8]      packing[12]  115
    x[8]      packing[14]  40
    x[8]      packing[15]  124
    x[8]      packing[16]  184
    x[8]      packing[17]  36
    x[8]      packing[18]  48
    x[8]      packing[19]  91
    x[8]      packing[21]  165
    x[8]      packing[22]  80
    x[8]      packing[23]  16
    x[8]      packing[24]  72
    x[8]      packing[25]  149
    x[8]      packing[26]  157
    x[8]      packing[27]  81
    x[8]      packing[28]  153
    x[8]      packing[29]  101
    x[8]      packing[30]  118
    x[8]      packing[32]  34
    x[8]      packing[34]  182
    x[8]      packing[35]  101
    x[8]      packing[36]  82
    x[8]      packing[38]  114
    x[8]      packing[39]  19
    x[8]      packing[40]  48
    x[8]      packing[41]  184
    x[8]      packing[43]  36
    x[8]      packing[44]  150
    x[8]      packing[45]  39
    x[8]      packing[46]  153
    x[8]      packing[47]  15
    x[8]      packing[49]  198
    x[9]      OBJ       81
    x[9]      packing[2]  44
    x[9]      packing[4]  187
    x[9]      packing[5]  43
    x[9]      packing[7]  157
    x[9]      packing[8]  131
    x[9]      packing[10]  30
    x[9]      packing[11]  106
    x[9]      packing[14]  186
    x[9]      packing[15]  14
    x[9]      packing[17]  115
    x[9]      packing[18]  4
    x[9]      packing[19]  24
    x[9]      packing[20]  47
    x[9]      packing[21]  183
    x[9]      packing[24]  103
    x[9]      packing[26]  14
    x[9]      packing[27]  107
    x[9]      packing[29]  17
    x[9]      packing[30]  35
    x[9]      packing[31]  124
    x[9]      packing[32]  68
    x[9]      packing[33]  195
    x[9]      packing[34]  49
    x[9]      packing[35]  77
    x[9]      packing[36]  16
    x[9]      packing[37]  125
    x[9]      packing[38]  134
    x[9]      packing[39]  123
    x[9]      packing[43]  19
    x[9]      packing[44]  175
    x[9]      packing[45]  36
    x[9]      packing[47]  181
    x[9]      packing[48]  87
    x[10]     OBJ       178
    x[10]     packing[0]  88
    x[10]     packing[1]  155
    x[10]     packing[2]  153
    x[10]     packing[3]  103
    x[10]     packing[6]  113
    x[10]     packing[8]  181
    x[10]     packing[10]  174
    x[10]     packing[11]  129
    x[10]     packing[12]  136
    x[10]     packing[13]  98
    x[10]     packing[14]  53
    x[10]     packing[15]  80
    x[10]     packing[17]  176
    x[10]     packing[18]  39
    x[10]     packing[19]  189
    x[10]     packing[21]  157
    x[10]     packing[22]  166
    x[10]     packing[24]  176
    x[10]     packing[25]  186
    x[10]     packing[26]  88
    x[10]     packing[28]  126
    x[10]     packing[30]  198
    x[10]     packing[31]  125
    x[10]     packing[32]  106
    x[10]     packing[33]  119
    x[10]     packing[34]  25
    x[10]     packing[35]  181
    x[10]     packing[36]  152
    x[10]     packing[38]  94
    x[10]     packing[39]  117
    x[10]     packing[40]  56
    x[10]     packing[41]  70
    x[10]     packing[42]  24
    x[10]     packing[43]  65
    x[10]     packing[47]  145
    x[10]     R50       1
    x[11]     OBJ       46
    x[11]     packing[1]  189
    x[11]     packing[2]  137
    x[11]     packing[3]  122
    x[11]     packing[6]  48
    x[11]     packing[7]  182
    x[11]     packing[8]  45
    x[11]     packing[9]  87
    x[11]     packing[10]  174
    x[11]     packing[11]  154
    x[11]     packing[12]  95
    x[11]     packing[15]  154
    x[11]     packing[16]  185
    x[11]     packing[18]  114
    x[11]     packing[19]  95
    x[11]     packing[20]  93
    x[11]     packing[22]  148
    x[11]     packing[23]  78
    x[11]     packing[25]  106
    x[11]     packing[26]  177
    x[11]     packing[27]  93
    x[11]     packing[28]  72
    x[11]     packing[30]  23
    x[11]     packing[31]  32
    x[11]     packing[35]  1
    x[11]     packing[36]  49
    x[11]     packing[37]  128
    x[11]     packing[38]  51
    x[11]     packing[39]  107
    x[11]     packing[41]  85
    x[11]     packing[43]  190
    x[11]     packing[44]  37
    x[11]     packing[45]  81
    x[11]     packing[46]  175
    x[11]     packing[47]  29
    x[11]     packing[48]  180
    x[11]     packing[49]  30
    x[12]     OBJ       185
    x[12]     packing[0]  162
    x[12]     packing[1]  27
    x[12]     packing[3]  165
    x[12]     packing[4]  163
    x[12]     packing[5]  72
    x[12]     packing[7]  85
    x[12]     packing[8]  172
    x[12]     packing[9]  149
    x[12]     packing[10]  80
    x[12]     packing[11]  7
    x[12]     packing[12]  160
    x[12]     packing[13]  109
    x[12]     packing[14]  194
    x[12]     packing[15]  2
    x[12]     packing[16]  56
    x[12]     packing[18]  123
    x[12]     packing[20]  68
    x[12]     packing[21]  104
    x[12]     packing[22]  85
    x[12]     packing[23]  83
    x[12]     packing[25]  110
    x[12]     packing[27]  192
    x[12]     packing[28]  133
    x[12]     packing[29]  21
    x[12]     packing[30]  39
    x[12]     packing[31]  94
    x[12]     packing[32]  52
    x[12]     packing[33]  133
    x[12]     packing[34]  131
    x[12]     packing[35]  198
    x[12]     packing[36]  64
    x[12]     packing[38]  2
    x[12]     packing[39]  129
    x[12]     packing[40]  36
    x[12]     packing[43]  192
    x[12]     packing[44]  60
    x[12]     R50       1
    x[13]     OBJ       25
    x[13]     packing[0]  37
    x[13]     packing[1]  45
    x[13]     packing[3]  22
    x[13]     packing[4]  193
    x[13]     packing[5]  91
    x[13]     packing[6]  33
    x[13]     packing[7]  157
    x[13]     packing[9]  136
    x[13]     packing[10]  131
    x[13]     packing[11]  22
    x[13]     packing[12]  91
    x[13]     packing[13]  171
    x[13]     packing[16]  44
    x[13]     packing[17]  180
    x[13]     packing[19]  187
    x[13]     packing[21]  26
    x[13]     packing[23]  55
    x[13]     packing[24]  61
    x[13]     packing[25]  53
    x[13]     packing[26]  27
    x[13]     packing[30]  20
    x[13]     packing[31]  36
    x[13]     packing[32]  167
    x[13]     packing[33]  61
    x[13]     packing[35]  149
    x[13]     packing[36]  151
    x[13]     packing[37]  65
    x[13]     packing[38]  137
    x[13]     packing[39]  52
    x[13]     packing[40]  85
    x[13]     packing[41]  9
    x[13]     packing[42]  184
    x[13]     packing[43]  78
    x[13]     packing[44]  184
    x[13]     packing[45]  110
    x[13]     packing[46]  21
    x[13]     packing[47]  46
    x[13]     packing[48]  53
    x[13]     packing[49]  143
    x[14]     OBJ       35
    x[14]     packing[0]  36
    x[14]     packing[1]  52
    x[14]     packing[2]  173
    x[14]     packing[3]  5
    x[14]     packing[4]  144
    x[14]     packing[6]  58
    x[14]     packing[7]  35
    x[14]     packing[9]  18
    x[14]     packing[13]  130
    x[14]     packing[14]  192
    x[14]     packing[15]  30
    x[14]     packing[18]  177
    x[14]     packing[19]  18
    x[14]     packing[22]  178
    x[14]     packing[23]  152
    x[14]     packing[24]  151
    x[14]     packing[25]  126
    x[14]     packing[26]  88
    x[14]     packing[27]  9
    x[14]     packing[28]  18
    x[14]     packing[29]  102
    x[14]     packing[30]  196
    x[14]     packing[31]  152
    x[14]     packing[33]  70
    x[14]     packing[34]  63
    x[14]     packing[35]  73
    x[14]     packing[37]  49
    x[14]     packing[40]  140
    x[14]     packing[42]  87
    x[14]     packing[43]  49
    x[14]     packing[47]  113
    x[14]     packing[48]  182
    x[14]     packing[49]  126
    x[15]     OBJ       35
    x[15]     packing[0]  135
    x[15]     packing[1]  151
    x[15]     packing[2]  187
    x[15]     packing[3]  130
    x[15]     packing[4]  183
    x[15]     packing[5]  71
    x[15]     packing[7]  22
    x[15]     packing[10]  188
    x[15]     packing[11]  58
    x[15]     packing[13]  130
    x[15]     packing[14]  171
    x[15]     packing[15]  109
    x[15]     packing[16]  104
    x[15]     packing[17]  88
    x[15]     packing[20]  165
    x[15]     packing[22]  122
    x[15]     packing[23]  97
    x[15]     packing[24]  57
    x[15]     packing[25]  104
    x[15]     packing[26]  95
    x[15]     packing[27]  127
    x[15]     packing[28]  58
    x[15]     packing[29]  17
    x[15]     packing[30]  196
    x[15]     packing[31]  5
    x[15]     packing[32]  96
    x[15]     packing[34]  89
    x[15]     packing[35]  125
    x[15]     packing[37]  185
    x[15]     packing[38]  104
    x[15]     packing[39]  158
    x[15]     packing[42]  151
    x[15]     packing[44]  75
    x[15]     packing[46]  179
    x[15]     packing[47]  83
    x[15]     packing[49]  42
    x[16]     OBJ       139
    x[16]     packing[0]  181
    x[16]     packing[1]  151
    x[16]     packing[2]  101
    x[16]     packing[3]  172
    x[16]     packing[4]  186
    x[16]     packing[5]  65
    x[16]     packing[6]  101
    x[16]     packing[7]  100
    x[16]     packing[8]  86
    x[16]     packing[10]  76
    x[16]     packing[11]  144
    x[16]     packing[12]  127
    x[16]     packing[14]  170
    x[16]     packing[15]  100
    x[16]     packing[17]  29
    x[16]     packing[18]  5
    x[16]     packing[22]  3
    x[16]     packing[23]  35
    x[16]     packing[24]  67
    x[16]     packing[25]  187
    x[16]     packing[28]  174
    x[16]     packing[29]  120
    x[16]     packing[30]  152
    x[16]     packing[32]  148
    x[16]     packing[34]  114
    x[16]     packing[35]  165
    x[16]     packing[36]  87
    x[16]     packing[37]  170
    x[16]     packing[38]  119
    x[16]     packing[39]  115
    x[16]     packing[40]  83
    x[16]     packing[41]  77
    x[16]     packing[43]  72
    x[16]     packing[44]  98
    x[16]     packing[46]  81
    x[16]     packing[48]  147
    x[17]     OBJ       191
    x[17]     packing[1]  184
    x[17]     packing[2]  23
    x[17]     packing[3]  150
    x[17]     packing[4]  54
    x[17]     packing[5]  154
    x[17]     packing[6]  88
    x[17]     packing[7]  187
    x[17]     packing[9]  3
    x[17]     packing[10]  14
    x[17]     packing[11]  10
    x[17]     packing[13]  51
    x[17]     packing[15]  99
    x[17]     packing[16]  124
    x[17]     packing[17]  178
    x[17]     packing[19]  184
    x[17]     packing[20]  36
    x[17]     packing[23]  8
    x[17]     packing[24]  47
    x[17]     packing[25]  132
    x[17]     packing[26]  184
    x[17]     packing[27]  75
    x[17]     packing[28]  6
    x[17]     packing[29]  192
    x[17]     packing[30]  184
    x[17]     packing[31]  175
    x[17]     packing[32]  54
    x[17]     packing[33]  114
    x[17]     packing[34]  147
    x[17]     packing[35]  69
    x[17]     packing[36]  152
    x[17]     packing[37]  69
    x[17]     packing[41]  3
    x[17]     packing[42]  39
    x[17]     packing[43]  13
    x[17]     packing[45]  107
    x[17]     packing[46]  4
    x[17]     packing[47]  127
    x[17]     packing[48]  79
    x[17]     packing[49]  88
    x[18]     OBJ       147
    x[18]     packing[0]  141
    x[18]     packing[1]  66
    x[18]     packing[2]  4
    x[18]     packing[3]  188
    x[18]     packing[5]  66
    x[18]     packing[6]  29
    x[18]     packing[7]  76
    x[18]     packing[8]  84
    x[18]     packing[9]  79
    x[18]     packing[10]  193
    x[18]     packing[11]  29
    x[18]     packing[12]  196
    x[18]     packing[14]  182
    x[18]     packing[16]  176
    x[18]     packing[18]  33
    x[18]     packing[19]  15
    x[18]     packing[21]  5
    x[18]     packing[23]  116
    x[18]     packing[24]  151
    x[18]     packing[25]  95
    x[18]     packing[26]  68
    x[18]     packing[29]  162
    x[18]     packing[30]  187
    x[18]     packing[32]  72
    x[18]     packing[34]  3
    x[18]     packing[35]  165
    x[18]     packing[36]  14
    x[18]     packing[38]  29
    x[18]     packing[39]  168
    x[18]     packing[41]  140
    x[18]     packing[43]  100
    x[18]     packing[44]  128
    x[18]     packing[47]  20
    x[18]     packing[48]  15
    x[18]     packing[49]  195
    x[18]     R50       1
    x[19]     OBJ       8
    x[19]     packing[2]  12
    x[19]     packing[3]  48
    x[19]     packing[4]  173
    x[19]     packing[5]  178
    x[19]     packing[6]  10
    x[19]     packing[9]  47
    x[19]     packing[10]  56
    x[19]     packing[11]  72
    x[19]     packing[12]  86
    x[19]     packing[15]  7
    x[19]     packing[16]  106
    x[19]     packing[17]  141
    x[19]     packing[18]  166
    x[19]     packing[19]  101
    x[19]     packing[20]  158
    x[19]     packing[22]  7
    x[19]     packing[23]  152
    x[19]     packing[24]  158
    x[19]     packing[26]  23
    x[19]     packing[29]  193
    x[19]     packing[30]  58
    x[19]     packing[31]  40
    x[19]     packing[32]  96
    x[19]     packing[33]  136
    x[19]     packing[36]  107
    x[19]     packing[38]  199
    x[19]     packing[41]  184
    x[19]     packing[42]  149
    x[19]     packing[43]  129
    x[19]     packing[44]  194
    x[19]     packing[45]  60
    x[19]     packing[46]  73
    x[19]     packing[47]  23
    x[19]     packing[48]  182
    x[19]     packing[49]  156
    x[20]     OBJ       10
    x[20]     packing[0]  102
    x[20]     packing[1]  126
    x[20]     packing[2]  78
    x[20]     packing[3]  158
    x[20]     packing[4]  16
    x[20]     packing[6]  93
    x[20]     packing[7]  57
    x[20]     packing[8]  56
    x[20]     packing[9]  159
    x[20]     packing[10]  56
    x[20]     packing[11]  156
    x[20]     packing[13]  87
    x[20]     packing[14]  133
    x[20]     packing[15]  19
    x[20]     packing[17]  81
    x[20]     packing[18]  190
    x[20]     packing[20]  6
    x[20]     packing[22]  155
    x[20]     packing[23]  46
    x[20]     packing[24]  10
    x[20]     packing[26]  146
    x[20]     packing[27]  176
    x[20]     packing[31]  107
    x[20]     packing[32]  122
    x[20]     packing[33]  160
    x[20]     packing[34]  107
    x[20]     packing[36]  12
    x[20]     packing[37]  173
    x[20]     packing[38]  161
    x[20]     packing[42]  108
    x[20]     packing[43]  69
    x[20]     packing[45]  155
    x[20]     packing[46]  188
    x[20]     packing[48]  21
    x[20]     packing[49]  48
    MARKER    'MARKER'                 'INTEND'
RHS
    RHS1      packing[0]  741
    RHS1      packing[1]  786
    RHS1      packing[2]  751
    RHS1      packing[3]  865
    RHS1      packing[4]  767
    RHS1      packing[5]  627
    RHS1      packing[6]  713
    RHS1      packing[7]  979
    RHS1      packing[8]  569
    RHS1      packing[9]  674
    RHS1      packing[10]  861
    RHS1      packing[11]  569
    RHS1      packing[12]  972
    RHS1      packing[13]  520
    RHS1      packing[14]  1082
    RHS1      packing[15]  687
    RHS1      packing[16]  649
    RHS1      packing[17]  729
    RHS1      packing[18]  679
    RHS1      packing[19]  676
    RHS1      packing[20]  553
    RHS1      packing[21]  648
    RHS1      packing[22]  725
    RHS1      packing[23]  603
    RHS1      packing[24]  739
    RHS1      packing[25]  763
    RHS1      packing[26]  769
    RHS1      packing[27]  731
    RHS1      packing[28]  573
    RHS1      packing[29]  660
    RHS1      packing[30]  918
    RHS1      packing[31]  609
    RHS1      packing[32]  871
    RHS1      packing[33]  778
    RHS1      packing[34]  654
    RHS1      packing[35]  868
    RHS1      packing[36]  718
    RHS1      packing[37]  641
    RHS1      packing[38]  681
    RHS1      packing[39]  771
    RHS1      packing[40]  444
    RHS1      packing[41]  513
    RHS1      packing[42]  497
    RHS1      packing[43]  679
    RHS1      packing[44]  957
    RHS1      packing[45]  636
    RHS1      packing[46]  750
    RHS1      packing[47]  886
    RHS1      packing[48]  736
    RHS1      packing[49]  935
    RHS1      R50       6
BOUNDS
 BV BND1      x[1]    
 BV BND1      x[2]    
 BV BND1      x[3]    
 BV BND1      x[4]    
 BV BND1      x[5]    
 BV BND1      x[6]    
 BV BND1      x[7]    
 BV BND1      x[8]    
 BV BND1      x[9]    
 BV BND1      x[10]   
 BV BND1      x[11]   
 BV BND1      x[12]   
 BV BND1      x[13]   
 BV BND1      x[14]   
 BV BND1      x[15]   
 BV BND1      x[16]   
 BV BND1      x[17]   
 BV BND1      x[18]   
 BV BND1      x[19]   
 BV BND1      x[20]   
ENDATA
